
Gurobi 9.1.2 (linux64) logging started Wed Nov 24 10:33:17 2021

Changed value of parameter LogFile to lemke_square_v-(6, 6).log-s20-l10.log
   Prev:   Default: 
Changed value of parameter Threads to 32
   Prev: 0  Min: 0  Max: 1024  Default: 0
Changed value of parameter TimeLimit to 3600.0
   Prev: inf  Min: 0.0  Max: inf  Default: inf
Changed value of parameter MIPGap to 0.4
   Prev: 0.0001  Min: 0.0  Max: inf  Default: 0.0001
Warning: variable name "X[(7, 4),(7, 3)]" has a space
Warning: constraint name "flow-constr-t0-v(3, 0)" has a space
Warning: to let Gurobi read it back, use rlp format
Gurobi Optimizer version 9.1.2 build v9.1.2rc0 (linux64)
Thread count: 16 physical cores, 32 logical processors, using up to 32 threads
Optimize a model with 6033 rows, 5440 columns and 20730 nonzeros
Model fingerprint: 0x742e8322
Variable types: 0 continuous, 5440 integer (4800 binary)
Coefficient statistics:
  Matrix range     [1e+00, 1e+03]
  Objective range  [1e-01, 1e-01]
  Bounds range     [1e+00, 5e+02]
  RHS range        [1e+00, 1e+03]
Presolve removed 498 rows and 520 columns
Presolve time: 0.04s
Presolved: 5535 rows, 4920 columns, 18420 nonzeros
Variable types: 0 continuous, 4920 integer (4290 binary)

Root relaxation: objective 6.300000e+01, 120 iterations, 0.00 seconds

    Nodes    |    Current Node    |     Objective Bounds      |     Work
 Expl Unexpl |  Obj  Depth IntInf | Incumbent    BestBd   Gap | It/Node Time

     0     0   63.00000    0   52          -   63.00000      -     -    0s
     0     0   63.00000    0   84          -   63.00000      -     -    0s
     0     0   63.00000    0   84          -   63.00000      -     -    0s
     0     0   63.00000    0   54          -   63.00000      -     -    0s
     0     0   63.00000    0   65          -   63.00000      -     -    0s
     0     0   63.00000    0   72          -   63.00000      -     -    0s
H    0     0                    3214.2000000   63.00000  98.0%     -    0s
     0     0   63.00000    0   62 3214.20000   63.00000  98.0%     -    0s
H    0     0                     162.7000000   63.00000  61.3%     -    0s
H    0     2                     133.5000000   63.00000  52.8%     -    0s
     0     2   63.00000    0   60  133.50000   63.00000  52.8%     -    0s
H   31    64                     121.4000000   63.00000  48.1%  52.0    1s
H   32    64                     108.7000000   63.00000  42.0%  52.5    1s
H   95   128                     101.3000000   63.00000  37.8%  56.4    3s
H   99   128                     100.5000000   63.00000  37.3%  55.4    3s

Cutting planes:
  Gomory: 2
  Cover: 130
  Implied bound: 136
  Clique: 12
  MIR: 27
  Flow cover: 28
  Zero half: 1
  RLT: 8
  Relax-and-lift: 33

Explored 127 nodes (7835 simplex iterations) in 3.42 seconds
Thread count was 32 (of 32 available processors)

Solution count 7: 100.5 101.3 108.7 ... 3214.2

Optimal solution found (tolerance 4.00e-01)
Best objective 1.005000000000e+02, best bound 6.300000000000e+01, gap 37.3134%

Gurobi 9.1.2 (linux64) logging started Wed Nov 24 12:43:20 2021

Changed value of parameter LogFile to lemke_square_v-(6, 6).log-s20-l10.log
   Prev:   Default: 
Changed value of parameter Threads to 32
   Prev: 0  Min: 0  Max: 1024  Default: 0
Changed value of parameter TimeLimit to 3600.0
   Prev: inf  Min: 0.0  Max: inf  Default: inf
Changed value of parameter MIPGap to 0.3
   Prev: 0.0001  Min: 0.0  Max: inf  Default: 0.0001
Warning: variable name "X[(7, 4),(7, 3)]" has a space
Warning: constraint name "flow-constr-t0-v(3, 0)" has a space
Warning: to let Gurobi read it back, use rlp format
Gurobi Optimizer version 9.1.2 build v9.1.2rc0 (linux64)
Thread count: 16 physical cores, 32 logical processors, using up to 32 threads
Optimize a model with 6033 rows, 5440 columns and 20730 nonzeros
Model fingerprint: 0x742e8322
Variable types: 0 continuous, 5440 integer (4800 binary)
Coefficient statistics:
  Matrix range     [1e+00, 1e+03]
  Objective range  [1e-01, 1e-01]
  Bounds range     [1e+00, 5e+02]
  RHS range        [1e+00, 1e+03]
Presolve removed 498 rows and 520 columns
Presolve time: 0.04s
Presolved: 5535 rows, 4920 columns, 18420 nonzeros
Variable types: 0 continuous, 4920 integer (4290 binary)

Root relaxation: objective 6.300000e+01, 120 iterations, 0.01 seconds

    Nodes    |    Current Node    |     Objective Bounds      |     Work
 Expl Unexpl |  Obj  Depth IntInf | Incumbent    BestBd   Gap | It/Node Time

     0     0   63.00000    0   52          -   63.00000      -     -    0s
     0     0   63.00000    0   84          -   63.00000      -     -    0s
     0     0   63.00000    0   84          -   63.00000      -     -    0s
     0     0   63.00000    0   54          -   63.00000      -     -    0s
     0     0   63.00000    0   65          -   63.00000      -     -    0s
     0     0   63.00000    0   72          -   63.00000      -     -    0s
H    0     0                    3214.2000000   63.00000  98.0%     -    0s
     0     0   63.00000    0   62 3214.20000   63.00000  98.0%     -    0s
H    0     0                     162.7000000   63.00000  61.3%     -    0s
H    0     2                     133.5000000   63.00000  52.8%     -    0s
     0     2   63.00000    0   60  133.50000   63.00000  52.8%     -    0s
H   31    64                     121.4000000   63.00000  48.1%  52.0    1s
H   32    64                     108.7000000   63.00000  42.0%  52.5    1s
H   95   128                     101.3000000   63.00000  37.8%  56.4    3s
H   99   128                     100.5000000   63.00000  37.3%  55.4    3s
  9191 10983   79.60000  276  124  100.50000   63.00000  37.3%   8.5    5s
H13803 12427                      94.2000000   63.00000  33.1%   7.4    5s
H13806 11793                      94.1000000   63.00000  33.0%   7.4    6s
H13807 11204                      93.7000000   63.00000  32.8%   7.4    6s
H13809 10645                      92.7000000   63.00000  32.0%   7.4    6s
H13816 10117                      89.6000000   63.00000  29.7%   7.4    7s

Cutting planes:
  Gomory: 13
  Cover: 131
  Implied bound: 130
  Projected implied bound: 22
  Clique: 30
  MIR: 68
  StrongCG: 1
  Flow cover: 86
  GUB cover: 2
  Zero half: 1
  RLT: 30
  Relax-and-lift: 41

Explored 13816 nodes (112104 simplex iterations) in 7.83 seconds
Thread count was 32 (of 32 available processors)

Solution count 10: 89.6 92.7 93.7 ... 133.5

Optimal solution found (tolerance 3.00e-01)
Best objective 8.960000000000e+01, best bound 6.300000000000e+01, gap 29.6875%
